NAME /Users/henri/Research/solvers/instances/idol-instances/robust/collection/spp_dkp_Lefebvre_et_al_2026/shortest_path_9_3/uncertainty_sets/discrete_knapsack
ROWS
 N  OBJ
 L  primal_lower
COLUMNS
    MARKER    'MARKER'                 'INTORG'
    y[0,1]     OBJ        0
    y[0,1]     primal_lower -4.48
    y[0,2]     OBJ        0
    y[0,2]     primal_lower -2.49
    y[0,3]     OBJ        0
    y[0,3]     primal_lower -1.28
    y[0,4]     OBJ        0
    y[0,4]     primal_lower -0.35
    y[0,5]     OBJ        0
    y[0,5]     primal_lower -2.02
    y[0,6]     OBJ        0
    y[0,6]     primal_lower -2.14
    y[0,7]     OBJ        0
    y[0,7]     primal_lower -0.22
    y[0,8]     OBJ        0
    y[0,8]     primal_lower -0.74
    y[1,0]     OBJ        0
    y[1,0]     primal_lower -0.53
    y[1,2]     OBJ        0
    y[1,2]     primal_lower -2.84
    y[1,3]     OBJ        0
    y[1,3]     primal_lower -3.88
    y[1,4]     OBJ        0
    y[1,4]     primal_lower -2.95
    y[1,5]     OBJ        0
    y[1,5]     primal_lower -4.49
    y[1,6]     OBJ        0
    y[1,6]     primal_lower -2.13
    y[1,7]     OBJ        0
    y[1,7]     primal_lower -2.8
    y[1,8]     OBJ        0
    y[1,8]     primal_lower -1.28
    y[2,0]     OBJ        0
    y[2,0]     primal_lower -4.43
    y[2,1]     OBJ        0
    y[2,1]     primal_lower -3.05
    y[2,3]     OBJ        0
    y[2,3]     primal_lower -2
    y[2,4]     OBJ        0
    y[2,4]     primal_lower -1.31
    y[2,5]     OBJ        0
    y[2,5]     primal_lower -2.31
    y[2,6]     OBJ        0
    y[2,6]     primal_lower -0.51
    y[2,7]     OBJ        0
    y[2,7]     primal_lower -1.03
    y[3,0]     OBJ        0
    y[3,0]     primal_lower -2.17
    y[3,1]     OBJ        0
    y[3,1]     primal_lower -1.1
    y[3,2]     OBJ        0
    y[3,2]     primal_lower -1.76
    y[3,4]     OBJ        0
    y[3,4]     primal_lower -3.71
    y[3,5]     OBJ        0
    y[3,5]     primal_lower -0.34
    y[3,6]     OBJ        0
    y[3,6]     primal_lower -4.19
    y[3,8]     OBJ        0
    y[3,8]     primal_lower -1.02
    y[4,0]     OBJ        0
    y[4,0]     primal_lower -3.2
    y[4,1]     OBJ        0
    y[4,1]     primal_lower -0.5
    y[4,2]     OBJ        0
    y[4,2]     primal_lower -2.73
    y[4,3]     OBJ        0
    y[4,3]     primal_lower -1.84
    y[4,5]     OBJ        0
    y[4,5]     primal_lower -3.79
    y[4,6]     OBJ        0
    y[4,6]     primal_lower -1.13
    y[4,7]     OBJ        0
    y[4,7]     primal_lower -2.08
    y[5,0]     OBJ        0
    y[5,0]     primal_lower -2.53
    y[5,1]     OBJ        0
    y[5,1]     primal_lower -1.14
    y[5,2]     OBJ        0
    y[5,2]     primal_lower -0.5
    y[5,3]     OBJ        0
    y[5,3]     primal_lower -3.29
    y[5,4]     OBJ        0
    y[5,4]     primal_lower -1.41
    y[5,6]     OBJ        0
    y[5,6]     primal_lower -3.74
    y[6,0]     OBJ        0
    y[6,0]     primal_lower -2.05
    y[6,1]     OBJ        0
    y[6,1]     primal_lower -0.43
    y[6,2]     OBJ        0
    y[6,2]     primal_lower -4.02
    y[6,3]     OBJ        0
    y[6,3]     primal_lower -3.36
    y[6,4]     OBJ        0
    y[6,4]     primal_lower -0.55
    y[6,5]     OBJ        0
    y[6,5]     primal_lower -3.88
    y[6,8]     OBJ        0
    y[6,8]     primal_lower -0.3
    y[7,0]     OBJ        0
    y[7,0]     primal_lower -0.83
    y[7,1]     OBJ        0
    y[7,1]     primal_lower -0.78
    y[7,2]     OBJ        0
    y[7,2]     primal_lower -4.18
    y[7,4]     OBJ        0
    y[7,4]     primal_lower -3.02
    y[8,0]     OBJ        0
    y[8,0]     primal_lower -1.16
    y[8,1]     OBJ        0
    y[8,1]     primal_lower -1.14
    y[8,3]     OBJ        0
    y[8,3]     primal_lower -4.46
    y[8,6]     OBJ        0
    y[8,6]     primal_lower -3.08
    u[0,1]     OBJ        0
    u[0,1]     primal_lower 95
    u[0,2]     OBJ        0
    u[0,2]     primal_lower 88
    u[0,3]     OBJ        0
    u[0,3]     primal_lower 12
    u[0,4]     OBJ        0
    u[0,4]     primal_lower 76
    u[0,5]     OBJ        0
    u[0,5]     primal_lower 14
    u[0,6]     OBJ        0
    u[0,6]     primal_lower 58
    u[0,7]     OBJ        0
    u[0,7]     primal_lower 23
    u[0,8]     OBJ        0
    u[0,8]     primal_lower 38
    u[1,0]     OBJ        0
    u[1,0]     primal_lower 32
    u[1,2]     OBJ        0
    u[1,2]     primal_lower 19
    u[1,3]     OBJ        0
    u[1,3]     primal_lower 93
    u[1,4]     OBJ        0
    u[1,4]     primal_lower 67
    u[1,5]     OBJ        0
    u[1,5]     primal_lower 57
    u[1,6]     OBJ        0
    u[1,6]     primal_lower 55
    u[1,7]     OBJ        0
    u[1,7]     primal_lower 67
    u[1,8]     OBJ        0
    u[1,8]     primal_lower 49
    u[2,0]     OBJ        0
    u[2,0]     primal_lower 41
    u[2,1]     OBJ        0
    u[2,1]     primal_lower 8
    u[2,3]     OBJ        0
    u[2,3]     primal_lower 58
    u[2,4]     OBJ        0
    u[2,4]     primal_lower 96
    u[2,5]     OBJ        0
    u[2,5]     primal_lower 3
    u[2,6]     OBJ        0
    u[2,6]     primal_lower 73
    u[2,7]     OBJ        0
    u[2,7]     primal_lower 91
    u[3,0]     OBJ        0
    u[3,0]     primal_lower 73
    u[3,1]     OBJ        0
    u[3,1]     primal_lower 48
    u[3,2]     OBJ        0
    u[3,2]     primal_lower 45
    u[3,4]     OBJ        0
    u[3,4]     primal_lower 88
    u[3,5]     OBJ        0
    u[3,5]     primal_lower 92
    u[3,6]     OBJ        0
    u[3,6]     primal_lower 56
    u[3,8]     OBJ        0
    u[3,8]     primal_lower 61
    u[4,0]     OBJ        0
    u[4,0]     primal_lower 48
    u[4,1]     OBJ        0
    u[4,1]     primal_lower 82
    u[4,2]     OBJ        0
    u[4,2]     primal_lower 41
    u[4,3]     OBJ        0
    u[4,3]     primal_lower 48
    u[4,5]     OBJ        0
    u[4,5]     primal_lower 4
    u[4,6]     OBJ        0
    u[4,6]     primal_lower 36
    u[4,7]     OBJ        0
    u[4,7]     primal_lower 33
    u[5,0]     OBJ        0
    u[5,0]     primal_lower 100
    u[5,1]     OBJ        0
    u[5,1]     primal_lower 70
    u[5,2]     OBJ        0
    u[5,2]     primal_lower 47
    u[5,3]     OBJ        0
    u[5,3]     primal_lower 13
    u[5,4]     OBJ        0
    u[5,4]     primal_lower 99
    u[5,6]     OBJ        0
    u[5,6]     primal_lower 67
    u[6,0]     OBJ        0
    u[6,0]     primal_lower 9
    u[6,1]     OBJ        0
    u[6,1]     primal_lower 36
    u[6,2]     OBJ        0
    u[6,2]     primal_lower 22
    u[6,3]     OBJ        0
    u[6,3]     primal_lower 78
    u[6,4]     OBJ        0
    u[6,4]     primal_lower 70
    u[6,5]     OBJ        0
    u[6,5]     primal_lower 20
    u[6,8]     OBJ        0
    u[6,8]     primal_lower 47
    u[7,0]     OBJ        0
    u[7,0]     primal_lower 56
    u[7,1]     OBJ        0
    u[7,1]     primal_lower 8
    u[7,2]     OBJ        0
    u[7,2]     primal_lower 10
    u[7,4]     OBJ        0
    u[7,4]     primal_lower 18
    u[8,0]     OBJ        0
    u[8,0]     primal_lower 47
    u[8,1]     OBJ        0
    u[8,1]     primal_lower 9
    u[8,3]     OBJ        0
    u[8,3]     primal_lower 13
    u[8,6]     OBJ        0
    u[8,6]     primal_lower 96
    MARKER    'MARKER'                 'INTEND'
RHS
    RHS       primal_lower 263
BOUNDS
 LI BND       y[0,1]     0
 UI BND       y[0,1]     1
 LI BND       y[0,2]     0
 UI BND       y[0,2]     1
 LI BND       y[0,3]     0
 UI BND       y[0,3]     1
 LI BND       y[0,4]     0
 UI BND       y[0,4]     1
 LI BND       y[0,5]     0
 UI BND       y[0,5]     1
 LI BND       y[0,6]     0
 UI BND       y[0,6]     1
 LI BND       y[0,7]     0
 UI BND       y[0,7]     1
 LI BND       y[0,8]     0
 UI BND       y[0,8]     1
 LI BND       y[1,0]     0
 UI BND       y[1,0]     1
 LI BND       y[1,2]     0
 UI BND       y[1,2]     1
 LI BND       y[1,3]     0
 UI BND       y[1,3]     1
 LI BND       y[1,4]     0
 UI BND       y[1,4]     1
 LI BND       y[1,5]     0
 UI BND       y[1,5]     1
 LI BND       y[1,6]     0
 UI BND       y[1,6]     1
 LI BND       y[1,7]     0
 UI BND       y[1,7]     1
 LI BND       y[1,8]     0
 UI BND       y[1,8]     1
 LI BND       y[2,0]     0
 UI BND       y[2,0]     1
 LI BND       y[2,1]     0
 UI BND       y[2,1]     1
 LI BND       y[2,3]     0
 UI BND       y[2,3]     1
 LI BND       y[2,4]     0
 UI BND       y[2,4]     1
 LI BND       y[2,5]     0
 UI BND       y[2,5]     1
 LI BND       y[2,6]     0
 UI BND       y[2,6]     1
 LI BND       y[2,7]     0
 UI BND       y[2,7]     1
 LI BND       y[3,0]     0
 UI BND       y[3,0]     1
 LI BND       y[3,1]     0
 UI BND       y[3,1]     1
 LI BND       y[3,2]     0
 UI BND       y[3,2]     1
 LI BND       y[3,4]     0
 UI BND       y[3,4]     1
 LI BND       y[3,5]     0
 UI BND       y[3,5]     1
 LI BND       y[3,6]     0
 UI BND       y[3,6]     1
 LI BND       y[3,8]     0
 UI BND       y[3,8]     1
 LI BND       y[4,0]     0
 UI BND       y[4,0]     1
 LI BND       y[4,1]     0
 UI BND       y[4,1]     1
 LI BND       y[4,2]     0
 UI BND       y[4,2]     1
 LI BND       y[4,3]     0
 UI BND       y[4,3]     1
 LI BND       y[4,5]     0
 UI BND       y[4,5]     1
 LI BND       y[4,6]     0
 UI BND       y[4,6]     1
 LI BND       y[4,7]     0
 UI BND       y[4,7]     1
 LI BND       y[5,0]     0
 UI BND       y[5,0]     1
 LI BND       y[5,1]     0
 UI BND       y[5,1]     1
 LI BND       y[5,2]     0
 UI BND       y[5,2]     1
 LI BND       y[5,3]     0
 UI BND       y[5,3]     1
 LI BND       y[5,4]     0
 UI BND       y[5,4]     1
 LI BND       y[5,6]     0
 UI BND       y[5,6]     1
 LI BND       y[6,0]     0
 UI BND       y[6,0]     1
 LI BND       y[6,1]     0
 UI BND       y[6,1]     1
 LI BND       y[6,2]     0
 UI BND       y[6,2]     1
 LI BND       y[6,3]     0
 UI BND       y[6,3]     1
 LI BND       y[6,4]     0
 UI BND       y[6,4]     1
 LI BND       y[6,5]     0
 UI BND       y[6,5]     1
 LI BND       y[6,8]     0
 UI BND       y[6,8]     1
 LI BND       y[7,0]     0
 UI BND       y[7,0]     1
 LI BND       y[7,1]     0
 UI BND       y[7,1]     1
 LI BND       y[7,2]     0
 UI BND       y[7,2]     1
 LI BND       y[7,4]     0
 UI BND       y[7,4]     1
 LI BND       y[8,0]     0
 UI BND       y[8,0]     1
 LI BND       y[8,1]     0
 UI BND       y[8,1]     1
 LI BND       y[8,3]     0
 UI BND       y[8,3]     1
 LI BND       y[8,6]     0
 UI BND       y[8,6]     1
 LI BND       u[0,1]     0
 UI BND       u[0,1]     1
 LI BND       u[0,2]     0
 UI BND       u[0,2]     1
 LI BND       u[0,3]     0
 UI BND       u[0,3]     1
 LI BND       u[0,4]     0
 UI BND       u[0,4]     1
 LI BND       u[0,5]     0
 UI BND       u[0,5]     1
 LI BND       u[0,6]     0
 UI BND       u[0,6]     1
 LI BND       u[0,7]     0
 UI BND       u[0,7]     1
 LI BND       u[0,8]     0
 UI BND       u[0,8]     1
 LI BND       u[1,0]     0
 UI BND       u[1,0]     1
 LI BND       u[1,2]     0
 UI BND       u[1,2]     1
 LI BND       u[1,3]     0
 UI BND       u[1,3]     1
 LI BND       u[1,4]     0
 UI BND       u[1,4]     1
 LI BND       u[1,5]     0
 UI BND       u[1,5]     1
 LI BND       u[1,6]     0
 UI BND       u[1,6]     1
 LI BND       u[1,7]     0
 UI BND       u[1,7]     1
 LI BND       u[1,8]     0
 UI BND       u[1,8]     1
 LI BND       u[2,0]     0
 UI BND       u[2,0]     1
 LI BND       u[2,1]     0
 UI BND       u[2,1]     1
 LI BND       u[2,3]     0
 UI BND       u[2,3]     1
 LI BND       u[2,4]     0
 UI BND       u[2,4]     1
 LI BND       u[2,5]     0
 UI BND       u[2,5]     1
 LI BND       u[2,6]     0
 UI BND       u[2,6]     1
 LI BND       u[2,7]     0
 UI BND       u[2,7]     1
 LI BND       u[3,0]     0
 UI BND       u[3,0]     1
 LI BND       u[3,1]     0
 UI BND       u[3,1]     1
 LI BND       u[3,2]     0
 UI BND       u[3,2]     1
 LI BND       u[3,4]     0
 UI BND       u[3,4]     1
 LI BND       u[3,5]     0
 UI BND       u[3,5]     1
 LI BND       u[3,6]     0
 UI BND       u[3,6]     1
 LI BND       u[3,8]     0
 UI BND       u[3,8]     1
 LI BND       u[4,0]     0
 UI BND       u[4,0]     1
 LI BND       u[4,1]     0
 UI BND       u[4,1]     1
 LI BND       u[4,2]     0
 UI BND       u[4,2]     1
 LI BND       u[4,3]     0
 UI BND       u[4,3]     1
 LI BND       u[4,5]     0
 UI BND       u[4,5]     1
 LI BND       u[4,6]     0
 UI BND       u[4,6]     1
 LI BND       u[4,7]     0
 UI BND       u[4,7]     1
 LI BND       u[5,0]     0
 UI BND       u[5,0]     1
 LI BND       u[5,1]     0
 UI BND       u[5,1]     1
 LI BND       u[5,2]     0
 UI BND       u[5,2]     1
 LI BND       u[5,3]     0
 UI BND       u[5,3]     1
 LI BND       u[5,4]     0
 UI BND       u[5,4]     1
 LI BND       u[5,6]     0
 UI BND       u[5,6]     1
 LI BND       u[6,0]     0
 UI BND       u[6,0]     1
 LI BND       u[6,1]     0
 UI BND       u[6,1]     1
 LI BND       u[6,2]     0
 UI BND       u[6,2]     1
 LI BND       u[6,3]     0
 UI BND       u[6,3]     1
 LI BND       u[6,4]     0
 UI BND       u[6,4]     1
 LI BND       u[6,5]     0
 UI BND       u[6,5]     1
 LI BND       u[6,8]     0
 UI BND       u[6,8]     1
 LI BND       u[7,0]     0
 UI BND       u[7,0]     1
 LI BND       u[7,1]     0
 UI BND       u[7,1]     1
 LI BND       u[7,2]     0
 UI BND       u[7,2]     1
 LI BND       u[7,4]     0
 UI BND       u[7,4]     1
 LI BND       u[8,0]     0
 UI BND       u[8,0]     1
 LI BND       u[8,1]     0
 UI BND       u[8,1]     1
 LI BND       u[8,3]     0
 UI BND       u[8,3]     1
 LI BND       u[8,6]     0
 UI BND       u[8,6]     1
ENDATA
